!Max variation: 0.4  0.16890191826969386
&CONTROL
restart_mode = 'from_scratch',
calculation = "scf",
etot_conv_thr = 1.0E-4,
forc_conv_thr = 1.0D-3,
nstep = 40,
tprnfor = .true.,
tstress = .true.,
disk_io = 'low',
prefix = "template",
outdir = "/home/ben/espresso/scratch",
pseudo_dir = "/home/ben/espresso/pp",
/

&SYSTEM
ibrav = 0,
celldm(1) = 7.63,
nat = 4,
ntyp = 4,
ecutwfc = 35,
ecutrho = 200,
occupations = 'smearing',
smearing = 'mv',
degauss = 0.02,
/

&ELECTRONS
mixing_beta = 3.0000000E-01,
mixing_ndim = 10,
diagonalization='david',
mixing_mode = 'local-TF',
conv_thr = 1.0D-6,
/

&IONS
ion_dynamics='bfgs',
/

&CELL
cell_dynamics='bfgs',
press = 0.0,
cell_factor = 2.0,
/

ATOMIC_SPECIES
Al1   26.982   Al.pbe-nl-kjpaw_psl.1.0.0.UPF
Al2   26.982   Al.pbe-nl-kjpaw_psl.1.0.0.UPF
Al3   26.982   Al.pbe-nl-kjpaw_psl.1.0.0.UPF
Al4   26.982   Al.pbe-nl-kjpaw_psl.1.0.0.UPF

ATOMIC_POSITIONS crystal
Al1 0.9988953213477011 0.0003214436295605865 0.002299917863876703
Al2 0.5026908532972948 0.493577676396522 0.0023772009945254003
Al3 0.4968606542785213 0.0010308354988754628 0.509989088030239
Al4 0.9993237882710447 0.5073934268960907 0.5062096735949702

K_POINTS automatic
5 5 5    1 1 1

CELL_PARAMETERS alat
1.0  0.0  0.0
0.0  1.0  0.0
0.0  0.0  1.0

