!Max variation: 0.4  0.3575886862352491
&CONTROL
restart_mode = 'from_scratch',
calculation = "scf",
etot_conv_thr = 1.0E-4,
forc_conv_thr = 1.0D-3,
nstep = 40,
tprnfor = .true.,
tstress = .true.,
disk_io = 'low',
prefix = "template",
outdir = "/home/ben/espresso/scratch",
pseudo_dir = "/home/ben/espresso/pp",
/

&SYSTEM
ibrav = 0,
celldm(1) = 7.63,
nat = 4,
ntyp = 4,
ecutwfc = 35,
ecutrho = 200,
occupations = 'smearing',
smearing = 'mv',
degauss = 0.02,
/

&ELECTRONS
mixing_beta = 3.0000000E-01,
mixing_ndim = 10,
diagonalization='david',
mixing_mode = 'local-TF',
conv_thr = 1.0D-6,
/

&IONS
ion_dynamics='bfgs',
/

&CELL
cell_dynamics='bfgs',
press = 0.0,
cell_factor = 2.0,
/

ATOMIC_SPECIES
Al1   26.982   Al.pbe-nl-kjpaw_psl.1.0.0.UPF
Al2   26.982   Al.pbe-nl-kjpaw_psl.1.0.0.UPF
Al3   26.982   Al.pbe-nl-kjpaw_psl.1.0.0.UPF
Al4   26.982   Al.pbe-nl-kjpaw_psl.1.0.0.UPF

ATOMIC_POSITIONS crystal
Al1 0.9976612427375932 0.0006805405549611496 0.004869243735168511
Al2 0.5056969080356745 0.4864030540122208 0.005032862795507942
Al3 0.49335357156578097 0.002182421108912148 0.5211482788473596
Al4 0.9985683663853486 0.5156529057670496 0.5131467365529236

K_POINTS automatic
5 5 5    1 1 1

CELL_PARAMETERS alat
1.0  0.0  0.0
0.0  1.0  0.0
0.0  0.0  1.0

